
  32    4
  10   10   10   10

   0   0   0   0   0   2 2 9 
   5  10  10  10  10   1 3 
   5  10  10  10  10   3 6 5 4 
   7  10  10  10  10   4 31 12 11 8 
   5  10  10  10  10   2 12 7 
   9  10  10  10  10   2 10 8 
   6  10  10  10  10   2 11 8 
  10  10  10  10  10   2 16 13 
   7  10  10  10  10   2 15 14 
   3  10  10  10  10   1 11 
   3  10  10  10  10   2 17 15 
   8  10  10  10  10   2 22 15 
   9  10  10  10  10   1 14 
   7  10  10  10  10   2 30 17 
   9  10  10  10  10   1 16 
   9  10  10  10  10   2 30 18 
  10  10  10  10  10   2 22 18 
  10  10  10  10  10   2 23 19 
   5  10  10  10  10   2 29 20 
   9  10  10  10  10   2 28 21 
   3  10  10  10  10   2 27 24 
   5  10  10  10  10   2 27 25 
   1  10  10  10  10   2 27 26 
   9  10  10  10  10   1 25 
   3  10  10  10  10   1 26 
   6  10  10  10  10   1 32
   1  10  10  10  10   1 32
   4  10  10  10  10   1 32
   3  10  10  10  10   1 32
   9  10  10  10  10   1 32
  10  10  10  10  10   1 32
   0   0   0   0   0   0 
